DIMENSION: 12
EDGE_WEIGHT_TYPE: EXPLICIT
EDGE_WEIGHT_FORMAT: FULL_MATRIX
EDGE_WEIGHT_SECTION:
32767 75 49 79 72 55 71 34 87 8 10 70 
75 32767 17 46 32767 73 32767 32767 93 13 77 32767 
49 17 32767 32767 32767 77 32767 32767 50 32767 32767 32767 
79 46 32767 32767 15 84 23 88 79 32767 77 17 
72 32767 32767 15 32767 36 4 94 40 57 80 40 
55 73 77 84 36 32767 32767 54 21 32767 96 80 
71 32767 32767 23 4 32767 32767 53 24 32767 92 50 
34 32767 32767 88 94 54 53 32767 59 54 51 32767 
87 93 50 79 40 21 24 59 32767 23 67 91 
8 13 32767 32767 57 32767 32767 54 23 32767 68 54 
10 77 32767 77 80 96 92 51 67 68 32767 85 
70 32767 32767 17 40 80 50 32767 91 54 85 32767 
EOF